words_easy_train/words_559_SAT.qaiger
aag 45 16 0 1 29
6
20
26
24
4
22
30
32
10
8
18
14
12
16
28
2
90
34 19 17
36 18 16
38 37 35
40 27 8
42 21 14
44 20 15
46 45 43
48 46 41
50 23 12
52 51 48
54 26 9
56 22 13
58 57 55
60 28 7
62 30 5
64 29 6
66 65 63
68 66 61
70 31 4
72 24 10
74 25 11
76 75 73
78 77 71
80 78 68
82 80 58
84 82 52
86 85 38
88 84 39
90 89 87
i0 2 y2[2]
i1 1 x1[1]
i2 1 x1[4]
i3 1 x1[3]
i4 2 y2[1]
i5 1 x1[2]
i6 1 x1[6]
i7 1 x1[7]
i8 2 y2[4]
i9 2 y2[3]
i10 1 x1[0]
i11 2 y2[6]
i12 2 y2[5]
i13 2 y2[7]
i14 1 x1[5]
i15 2 y2[0]
o0 bv[0]
c
simplified
  >
    xor
      2 y2
      reverse
        1 x1
    1
