words_easy_train/words_559_SAT.qaiger.qdimacs
p cnf 45 88
a 9 10 11 12 13 14 15 16 0
e 1 2 3 4 5 6 7 8 17 18 19 20 21 22 23 24 25 26 27 28 29 30 31 32 33 34 35 36 37 38 39 40 41 42 43 44 45 0
9 8 17 0
-9 -17 0
-8 -17 0
-9 -8 18 0
9 -18 0
8 -18 0
18 17 19 0
-18 -19 0
-17 -19 0
13 -4 20 0
-13 -20 0
4 -20 0
10 -7 21 0
-10 -21 0
7 -21 0
-10 7 22 0
10 -22 0
-7 -22 0
22 21 23 0
-22 -23 0
-21 -23 0
-23 20 24 0
23 -24 0
-20 -24 0
11 -6 25 0
-11 -25 0
6 -25 0
25 -24 26 0
-25 -26 0
24 -26 0
-13 4 27 0
13 -27 0
-4 -27 0
-11 6 28 0
11 -28 0
-6 -28 0
28 27 29 0
-28 -29 0
-27 -29 0
-14 3 30 0
14 -30 0
-3 -30 0
-15 2 31 0
15 -31 0
-2 -31 0
14 -3 32 0
-14 -32 0
3 -32 0
32 31 33 0
-32 -33 0
-31 -33 0
-33 30 34 0
33 -34 0
-30 -34 0
15 -2 35 0
-15 -35 0
2 -35 0
-12 -5 36 0
12 -36 0
5 -36 0
12 5 37 0
-12 -37 0
-5 -37 0
37 36 38 0
-37 -38 0
-36 -38 0
38 35 39 0
-38 -39 0
-35 -39 0
-39 -34 40 0
39 -40 0
34 -40 0
-40 -29 41 0
40 -41 0
29 -41 0
-41 -26 42 0
41 -42 0
26 -42 0
42 -19 43 0
-42 -43 0
19 -43 0
-42 19 44 0
42 -44 0
-19 -44 0
44 43 45 0
-44 -45 0
-43 -45 0
45 0
